/*********************************************
 * OPL 22.1.0.0 Data
 * Author: Hello
 * Creation Date: Mar 4, 2023 at 11:35:16 AM
 *********************************************/
n = 12;
m = 2;
p = [4,4,4,5,5,5,6,6,6,7,7,7];
T = 15; 
B = 60;
q = [1,2,3,4,5,1,2,3,4,5,1,2];